(declare-const x String)
(declare-const y String)
(declare-const m String)
(declare-const n String)
(assert (str.in.re x (re.* (str.to.re ""))))
(assert (= (str.to.int x) 6))
(assert (not (= x "'\r'*p")))
(assert (not (= x "Zb\\D")))
(assert (not (= x "K2")))
(assert (not (= x "0""Y")))
(assert (not (= x "F' 'b")))
(assert (not (= x "&uab")))
(assert (not (= x "Lz'\x0b'")))
(check-sat)
(get-model)
